NAME: concorde91
TYPE: TSP
DIMENSION: 15 
EDGE_WEIGHT_TYPE: EUC_2D
NODE_COORD_SECTION
1 5 37
2 49 22
3 5 75
4 95 30
5 63 40
6 27 39
7 100 44
8 36 78
9 37 21
10 33 75
11 10 59
12 58 32
13 33 37
14 0 2
15 100 48
